outputs/case_35.model.txt
violation_occurred = True
improvement_completed = True
violation_minor = True
violation_warning = True
violation_dismiss_officer = False
violation_suspension = False
violation_revoke_license = False
violation_other_measures = False
internal_control_executed = False
report_submitted_on_time = False
documents_prepared_and_preserved = False
contract_written_and_risk_disclosed = False
important_content_compliant = False
penalty = False
derivative_financial_contract_important_content_compliance = False
minor_violation_exemption = True
document_preparation_compliance = False
report_submission_compliance = False
derivative_financial_contract_compliance = False
violation_penalty_level = 1
internal_control_compliance = False
penalty_applicable = False